%%%%%%%%%%%%%%%%%%%%%%%%%%%%%%%%%%%%%%%%%%%%%%%%%%%%%%%%%%%%%%%%%%%%%%%%%
%FILE DATA:	Soccer Computational Problem for MiniZinc Models
%AUTHORS:	Robinson Duque, Alejandro Arbelaez, Juan Francisco Díaz
%CONTACT:  	robinson.duque@correounivalle.edu.co 
%LAST UPDATE:	May, 2018 
%ROUND ROBIN:2
%TEAMS:20
%PRESENT FIXTURE:23
%FIXTURES TO PLAY:15
%GAMES TO PLAY:150
%%%%%%%%%%%%%%%%%%%%%%%%%%%%%%%%%%%%%%%%%%%%%%%%%%%%%%%%%%%%%%%%%%%%%%%%%
%Number of teams:
n=20;

%For the purpose of our models, we offer two representations of the games to play, namely fixtures and games to play:

%Fixtures to play:
%fixtures=[|0,0,0,1,1,1,0,1,0,1,1,1,1,1,1,1,1,1,1,1
%|0,0,1,1,1,0,1,0,1,0,1,1,1,1,1,1,1,1,1,1
%|0,1,0,1,1,1,1,1,1,1,0,1,1,0,1,0,1,1,1,1
%|1,1,1,0,1,1,0,1,0,1,0,1,0,1,1,1,1,1,1,1
%|1,1,1,1,0,1,1,1,1,1,0,1,1,1,1,1,1,0,0,0
%|1,0,1,1,1,0,0,1,1,1,1,1,0,1,1,1,1,0,1,1
%|0,1,1,0,1,0,0,0,1,1,1,1,1,1,1,1,1,1,1,1
%|1,0,1,1,1,1,0,0,1,1,1,1,1,1,0,1,1,0,1,1
%|0,1,1,0,1,1,1,1,0,1,1,0,1,1,1,0,1,1,1,1
%|1,0,1,1,1,1,1,1,1,0,0,1,0,1,1,1,1,1,1,0
%|1,1,0,0,0,1,1,1,1,0,0,1,1,1,1,1,1,1,1,1
%|1,1,1,1,1,1,1,1,0,1,1,0,1,0,1,1,1,0,1,0
%|1,1,1,0,1,0,1,1,1,0,1,1,0,0,1,1,1,1,1,1
%|1,1,0,1,1,1,1,1,1,1,1,0,0,0,1,1,1,1,0,1
%|1,1,1,1,1,1,1,0,1,1,1,1,1,1,0,0,0,1,0,1
%|1,1,0,1,1,1,1,1,0,1,1,1,1,1,0,0,0,1,1,1
%|1,1,1,1,1,1,1,1,1,1,1,1,1,1,0,0,0,1,0,0
%|1,1,1,1,0,0,1,0,1,1,1,0,1,1,1,1,1,0,1,1
%|1,1,1,1,0,1,1,1,1,1,1,1,1,0,0,1,0,1,0,1
%|1,1,1,1,0,1,1,1,1,0,1,0,1,1,1,1,0,1,1,0|];

%Played Fixtures:
%PlayedFixtures=[|0,2,2,1,1,1,2,1,2,1,1,1,1,1,1,1,1,1,1,1
%|2,0,1,1,1,2,1,2,1,2,1,1,1,1,1,1,1,1,1,1
%|2,1,0,1,1,1,1,1,1,1,2,1,1,2,1,2,1,1,1,1
%|1,1,1,0,1,1,2,1,2,1,2,1,2,1,1,1,1,1,1,1
%|1,1,1,1,0,1,1,1,1,1,2,1,1,1,1,1,1,2,2,2
%|1,2,1,1,1,0,2,1,1,1,1,1,2,1,1,1,1,2,1,1
%|2,1,1,2,1,2,0,2,1,1,1,1,1,1,1,1,1,1,1,1
%|1,2,1,1,1,1,2,0,1,1,1,1,1,1,2,1,1,2,1,1
%|2,1,1,2,1,1,1,1,0,1,1,2,1,1,1,2,1,1,1,1
%|1,2,1,1,1,1,1,1,1,0,2,1,2,1,1,1,1,1,1,2
%|1,1,2,2,2,1,1,1,1,2,0,1,1,1,1,1,1,1,1,1
%|1,1,1,1,1,1,1,1,2,1,1,0,1,2,1,1,1,2,1,2
%|1,1,1,2,1,2,1,1,1,2,1,1,0,2,1,1,1,1,1,1
%|1,1,2,1,1,1,1,1,1,1,1,2,2,0,1,1,1,1,2,1
%|1,1,1,1,1,1,1,2,1,1,1,1,1,1,0,2,2,1,2,1
%|1,1,2,1,1,1,1,1,2,1,1,1,1,1,2,0,2,1,1,1
%|1,1,1,1,1,1,1,1,1,1,1,1,1,1,2,2,0,1,2,2
%|1,1,1,1,2,2,1,2,1,1,1,2,1,1,1,1,1,0,1,1
%|1,1,1,1,2,1,1,1,1,1,1,1,1,2,2,1,2,1,0,1
%|1,1,1,1,2,1,1,1,1,2,1,2,1,1,1,1,2,1,1,0|];

%Games to play:
games=[|3,2|4,1|4,2|4,3|5,1|5,2|5,3|5,4|6,1|6,3|6,4|6,5|7,2|7,3|7,5|8,1|8,3|8,4|8,5|8,6|9,2|9,3|9,5|9,6|9,7|9,8|10,1|10,3|10,4|10,5|10,6|10,7|10,8|10,9|11,1|11,2|11,6|11,7|11,8|11,9|12,1|12,2|12,3|12,4|12,5|12,6|12,7|12,8|12,10|12,11|13,1|13,2|13,3|13,5|13,7|13,8|13,9|13,11|13,12|14,1|14,2|14,4|14,5|14,6|14,7|14,8|14,9|14,10|14,11|15,1|15,2|15,3|15,4|15,5|15,6|15,7|15,9|15,10|15,11|15,12|15,13|15,14|16,1|16,2|16,4|16,5|16,6|16,7|16,8|16,10|16,11|16,12|16,13|16,14|17,1|17,2|17,3|17,4|17,5|17,6|17,7|17,8|17,9|17,10|17,11|17,12|17,13|17,14|18,1|18,2|18,3|18,4|18,7|18,9|18,10|18,11|18,13|18,14|18,15|18,16|18,17|19,1|19,2|19,3|19,4|19,6|19,7|19,8|19,9|19,10|19,11|19,12|19,13|19,16|19,18|20,1|20,2|20,3|20,4|20,6|20,7|20,8|20,9|20,11|20,13|20,14|20,15|20,16|20,18|20,19|];

%Played Games:
%PlayedGames=[|2,1|2,1|3,1|3,1|3,2|4,1|4,2|4,3|5,1|5,2|5,3|5,4|6,1|6,2|6,2|6,3|6,4|6,5|7,1|7,1|7,2|7,3|7,4|7,4|7,5|7,6|7,6|8,1|8,2|8,2|8,3|8,4|8,5|8,6|8,7|8,7|9,1|9,1|9,2|9,3|9,4|9,4|9,5|9,6|9,7|9,8|10,1|10,2|10,2|10,3|10,4|10,5|10,6|10,7|10,8|10,9|11,1|11,2|11,3|11,3|11,4|11,4|11,5|11,5|11,6|11,7|11,8|11,9|11,10|11,10|12,1|12,2|12,3|12,4|12,5|12,6|12,7|12,8|12,9|12,9|12,10|12,11|13,1|13,2|13,3|13,4|13,4|13,5|13,6|13,6|13,7|13,8|13,9|13,10|13,10|13,11|13,12|14,1|14,2|14,3|14,3|14,4|14,5|14,6|14,7|14,8|14,9|14,10|14,11|14,12|14,12|14,13|14,13|15,1|15,2|15,3|15,4|15,5|15,6|15,7|15,8|15,8|15,9|15,10|15,11|15,12|15,13|15,14|16,1|16,2|16,3|16,3|16,4|16,5|16,6|16,7|16,8|16,9|16,9|16,10|16,11|16,12|16,13|16,14|16,15|16,15|17,1|17,2|17,3|17,4|17,5|17,6|17,7|17,8|17,9|17,10|17,11|17,12|17,13|17,14|17,15|17,15|17,16|17,16|18,1|18,2|18,3|18,4|18,5|18,5|18,6|18,6|18,7|18,8|18,8|18,9|18,10|18,11|18,12|18,12|18,13|18,14|18,15|18,16|18,17|19,1|19,2|19,3|19,4|19,5|19,5|19,6|19,7|19,8|19,9|19,10|19,11|19,12|19,13|19,14|19,14|19,15|19,15|19,16|19,17|19,17|19,18|20,1|20,2|20,3|20,4|20,5|20,5|20,6|20,7|20,8|20,9|20,10|20,10|20,11|20,12|20,12|20,13|20,14|20,15|20,16|20,17|20,17|20,18|20,19|];

%Played Games - Win Results:
%% 0  0  0  0  0  0  0  1  0  0  0  1  0  0  0  0  0  1  0  0
%% 0  0  0  0  0  0  0  0  0  0  0  1  0  0  0  0  0  0  0  0
%% 0  1  0  0  0  0  0  0  0  0  0  1  1  0  0  0  0  0  0  0
%% 0  0  0  0  0  0  0  0  0  0  0  0  0  0  0  0  0  0  0  0
%% 0  0  1  0  0  1  0  1  1  0  0  0  1  0  0  0  0  0  1  0
%% 0  0  0  0  0  0  0  0  0  1  0  0  0  0  0  0  0  0  0  0
%% 0  0  0  0  0  0  0  0  0  0  0  0  1  0  0  0  0  0  0  0
%% 0  0  0  0  0  1  0  0  0  1  0  0  0  0  0  0  0  0  0  0
%% 0  1  0  0  0  0  0  1  0  1  0  0  0  0  0  0  0  0  0  0
%% 0  0  0  0  0  0  1  0  0  0  0  0  0  0  0  0  0  0  0  0
%% 1  1  0  0  0  0  0  0  0  0  0  1  0  0  0  0  0  1  1  0
%% 0  0  0  0  0  0  0  0  0  0  0  0  1  0  0  0  0  0  0  0
%% 0  0  0  0  0  0  0  0  0  0  0  0  0  0  0  0  0  0  0  0
%% 0  0  0  1  0  1  0  0  1  1  1  0  0  0  0  1  0  1  1  0
%% 1  1  0  0  0  0  0  0  1  0  1  1  0  0  0  0  0  1  0  0
%% 0  1  0  0  0  0  1  0  0  0  0  0  0  0  1  0  0  1  0  1
%% 1  0  1  1  0  1  1  1  1  0  1  0  0  0  0  0  0  0  0  0
%% 0  0  0  0  0  0  0  0  0  0  0  0  0  0  0  0  0  0  0  0
%% 1  0  1  0  0  0  1  0  0  0  0  0  1  0  0  0  0  0  0  0
%% 0  1  1  0  0  0  0  0  0  0  1  0  0  0  0  0  2  0  0  0
%Played Games - Tie Results:
%% 0  2  2  1  1  1  2  0  2  1  0  0  1  1  0  1  0  0  0  1
%% 2  0  0  1  1  2  1  2  0  2  0  0  1  1  0  0  1  1  1  0
%% 2  0  0  1  0  1  1  1  1  1  2  0  0  2  1  2  0  1  0  0
%% 1  1  1  0  1  1  2  1  2  1  2  1  2  0  1  1  0  1  1  1
%% 1  1  0  1  0  0  1  0  0  1  2  1  0  1  1  1  1  2  1  2
%% 1  2  1  1  0  0  2  0  1  0  1  1  2  0  1  1  0  2  1  1
%% 2  1  1  2  1  2  0  2  1  0  1  1  0  1  1  0  0  1  0  1
%% 0  2  1  1  0  0  2  0  0  0  1  1  1  1  2  1  0  2  1  1
%% 2  0  1  2  0  1  1  0  0  0  1  2  1  0  0  2  0  1  1  1
%% 1  2  1  1  1  0  0  0  0  0  2  1  2  0  1  1  1  1  1  2
%% 0  0  2  2  2  1  1  1  1  2  0  0  1  0  0  1  0  0  0  0
%% 0  0  0  1  1  1  1  1  2  1  0  0  0  2  0  1  1  2  1  2
%% 1  1  0  2  0  2  0  1  1  2  1  0  0  2  1  1  1  1  0  1
%% 1  1  2  0  1  0  1  1  0  0  0  2  2  0  1  0  1  0  1  1
%% 0  0  1  1  1  1  1  2  0  1  0  0  1  1  0  1  2  0  2  1
%% 1  0  2  1  1  1  0  1  2  1  1  1  1  0  1  0  2  0  1  0
%% 0  1  0  0  1  0  0  0  0  1  0  1  1  1  2  2  0  1  2  0
%% 0  1  1  1  2  2  1  2  1  1  0  2  1  0  0  0  1  0  1  1
%% 0  1  0  1  1  1  0  1  1  1  0  1  0  1  2  1  2  1  0  1
%% 1  0  0  1  2  1  1  1  1  2  0  2  1  1  1  0  0  1  1  0
%Played Games - Lose Results:
%% 0  0  0  0  0  0  0  0  0  0  1  0  0  0  1  0  1  0  1  0
%% 0  0  1  0  0  0  0  0  1  0  1  0  0  0  1  1  0  0  0  1
%% 0  0  0  0  1  0  0  0  0  0  0  0  0  0  0  0  1  0  1  1
%% 0  0  0  0  0  0  0  0  0  0  0  0  0  1  0  0  1  0  0  0
%% 0  0  0  0  0  0  0  0  0  0  0  0  0  0  0  0  0  0  0  0
%% 0  0  0  0  1  0  0  1  0  0  0  0  0  1  0  0  1  0  0  0
%% 0  0  0  0  0  0  0  0  0  1  0  0  0  0  0  1  1  0  1  0
%% 1  0  0  0  1  0  0  0  1  0  0  0  0  0  0  0  1  0  0  0
%% 0  0  0  0  1  0  0  0  0  0  0  0  0  1  1  0  1  0  0  0
%% 0  0  0  0  0  1  0  1  1  0  0  0  0  1  0  0  0  0  0  0
%% 0  0  0  0  0  0  0  0  0  0  0  0  0  1  1  0  1  0  0  1
%% 1  1  1  0  0  0  0  0  0  0  1  0  0  0  1  0  0  0  0  0
%% 0  0  1  0  1  0  1  0  0  0  0  1  0  0  0  0  0  0  1  0
%% 0  0  0  0  0  0  0  0  0  0  0  0  0  0  0  0  0  0  0  0
%% 0  0  0  0  0  0  0  0  0  0  0  0  0  0  0  1  0  0  0  0
%% 0  0  0  0  0  0  0  0  0  0  0  0  0  1  0  0  0  0  0  0
%% 0  0  0  0  0  0  0  0  0  0  0  0  0  0  0  0  0  0  0  2
%% 1  0  0  0  0  0  0  0  0  0  1  0  0  1  1  1  0  0  0  0
%% 0  0  0  0  1  0  0  0  0  0  1  0  0  1  0  0  0  0  0  0
%% 0  0  0  0  0  0  0  0  0  0  0  0  0  0  0  1  0  0  0  0

%%Initial points:
iPoints=[25, 19, 25, 21, 35, 21, 21, 23, 25, 21, 29, 20, 18, 39, 34, 32, 37, 18, 28, 32];

%%Initial positions:
%iPositions=[11, 18, 10, 16, 3, 15, 14, 12, 9, 13, 7, 17, 20, 1, 4, 6, 2, 19, 8, 5];

%%Position Constraints:
%numberPositionConstraints=2;

%%Total Fixtures:
%totalFixtures=38;

%%Fixtures to Play:
%fixturesToPlay=15;

%%Position Constraints Built With
%wantedPoints=[3, 3, 1, 0, 0, 0, 3, 0, 0, 1, 1, 1, 3, 1, 1, 0, 0, 0, 1, 3, 3, 0, 1, 3, 1, 1, 0, 3, 1, 1, 0, 3, 0, 0, 3, 3, 0, 3, 0, 3, 1, 3, 3, 1, 1, 1, 1, 3, 3, 1, 3, 3, 0, 3, 3, 0, 1, 3, 3, 3, 3, 1, 1, 3, 3, 1, 1, 1, 0, 1, 3, 3, 1, 3, 0, 3, 0, 0, 1, 0, 1, 0, 0, 3, 3, 0, 1, 1, 3, 1, 1, 1, 3, 1, 1, 0, 1, 1, 0, 1, 0, 3, 1, 1, 3, 3, 3, 0, 0, 3, 1, 3, 1, 1, 0, 3, 1, 1, 0, 0, 1, 1, 0, 1, 0, 1, 0, 0, 0, 0, 1, 0, 0, 3, 3, 3, 1, 0, 0, 3, 1, 1, 3, 1, 3, 1, 0, 1, 3, 1];

%POSITION CONSTRAINTS
%%[|teamID, operator, position|...]
%%operators index:
%%%1 for =  operator
%%%2 for >  operator
%%%3 for >= operator
%%%4 for <  operator
%%%5 for <= operator

positionConstraints=[|16,1,5|20,1,4|];

%SCORE VECTOR CONSTRAINTS
%%[|teamID, operator, wantedPoints|...]
%%operators index:
%%%1 for =  operator
%%%2 for >  operator
%%%3 for >= operator
%%%4 for <  operator
%%%5 for <= operator

%scoreVectorConstraints=[|16,1,54|20,1,54|];

%Instance Features:
%features=T,FP,TF,C,C/T,C/TF,FP/TF,FP/T,FP*C/T,FP*T/C,(C/T)*(FP/TF),Distance,Distance/C,Distance/T,Distance/(C*T)
%values=20,15,38,2,0.1,0.05263157894736842,0.3947368421052632,0.75,1.5,150.0,0.03947368421052632,2,1.0,0.1,0.05



gamesOfEveryTeam=[15,15,15,15,15,15,15,15,15,15,15,15,15,15,15,15,15,15,15,15];
weights=[|5,43,0,52|41,38,0,21|16,18,0,66|72,13,0,15|76,19,0,5|81,14,0,5|43,15,0,42|80,0,0,20|21,42,0,37|84,5,0,11|68,5,0,27|84,7,0,9|6,71,0,23|64,35,0,1|11,62,0,27|22,22,0,56|21,13,0,66|11,68,0,21|71,16,0,13|87,0,0,13|79,13,0,8|60,5,0,35|31,15,0,54|92,7,0,1|45,15,0,40|99,1,0,0|85,13,0,2|49,16,0,35|43,31,0,26|87,5,0,8|48,46,0,6|43,46,0,11|88,0,0,12|18,21,0,61|87,1,0,12|73,0,0,27|71,10,0,19|66,8,0,26|25,55,0,20|43,13,0,44|84,11,0,5|68,7,0,25|86,11,0,3|70,24,0,6|45,29,0,26|66,1,0,33|68,6,0,26|7,75,0,18|95,3,0,2|27,35,0,38|38,40,0,22|4,84,0,12|100,0,0,0|74,13,0,13|78,12,0,10|75,2,0,23|83,11,0,6|75,14,0,11|61,7,0,32|91,8,0,1|66,10,0,24|7,54,0,39|75,5,0,20|29,30,0,41|91,3,0,6|76,13,0,11|71,5,0,24|75,8,0,17|50,13,0,37|26,59,0,15|9,24,0,67|23,14,0,63|37,32,0,31|25,37,0,38|0,22,0,78|39,55,0,6|38,49,0,13|76,15,0,9|1,6,0,93|54,35,0,11|89,0,0,11|66,0,0,34|24,43,0,33|49,8,0,43|98,0,0,2|11,7,0,82|22,6,0,72|65,30,0,5|96,4,0,0|72,18,0,10|52,33,0,15|32,41,0,27|66,22,0,12|1,26,0,73|43,16,0,41|85,2,0,13|47,9,0,44|70,15,0,15|80,20,0,0|100,0,0,0|78,10,0,12|88,3,0,9|71,20,0,9|52,14,0,34|4,53,0,43|72,6,0,22|47,5,0,48|53,24,0,23|49,49,0,2|95,3,0,2|28,16,0,56|50,3,0,47|17,44,0,39|43,8,0,49|87,2,0,11|2,98,0,0|29,21,0,50|86,1,0,13|47,0,0,53|27,38,0,35|64,20,0,16|53,41,0,6|17,35,0,48|70,29,0,1|93,6,0,1|33,45,0,22|92,5,0,3|25,67,0,8|84,12,0,4|69,15,0,16|99,1,0,0|28,28,0,44|42,33,0,25|7,44,0,49|82,18,0,0|36,40,0,24|53,40,0,7|79,16,0,5|28,28,0,44|51,13,0,36|77,13,0,10|14,29,0,57|65,12,0,23|68,27,0,5|57,25,0,18|91,6,0,3|73,21,0,6|10,70,0,20|62,34,0,4|33,65,0,2|];